certificates/rado_a5_c253_N50.cnf
c Rad2 upper bound instance: x1 + 5*x2 - x3 = 253, interval [1,50]
p cnf 50 490
1 4 50 0
-1 -4 -50 0
2 5 50 0
-2 -5 -50 0
3 6 50 0
-3 -6 -50 0
4 7 50 0
-4 -7 -50 0
5 8 50 0
-5 -8 -50 0
1 9 49 0
-1 -9 -49 0
6 9 50 0
-6 -9 -50 0
2 10 49 0
-2 -10 -49 0
7 10 50 0
-7 -10 -50 0
3 11 49 0
-3 -11 -49 0
8 11 50 0
-8 -11 -50 0
4 12 49 0
-4 -12 -49 0
9 12 50 0
-9 -12 -50 0
5 13 49 0
-5 -13 -49 0
10 13 50 0
-10 -13 -50 0
1 14 48 0
-1 -14 -48 0
6 14 49 0
-6 -14 -49 0
11 14 50 0
-11 -14 -50 0
2 15 48 0
-2 -15 -48 0
7 15 49 0
-7 -15 -49 0
12 15 50 0
-12 -15 -50 0
3 16 48 0
-3 -16 -48 0
8 16 49 0
-8 -16 -49 0
13 16 50 0
-13 -16 -50 0
4 17 48 0
-4 -17 -48 0
9 17 49 0
-9 -17 -49 0
14 17 50 0
-14 -17 -50 0
5 18 48 0
-5 -18 -48 0
10 18 49 0
-10 -18 -49 0
15 18 50 0
-15 -18 -50 0
1 19 47 0
-1 -19 -47 0
6 19 48 0
-6 -19 -48 0
11 19 49 0
-11 -19 -49 0
16 19 50 0
-16 -19 -50 0
2 20 47 0
-2 -20 -47 0
7 20 48 0
-7 -20 -48 0
12 20 49 0
-12 -20 -49 0
17 20 50 0
-17 -20 -50 0
3 21 47 0
-3 -21 -47 0
8 21 48 0
-8 -21 -48 0
13 21 49 0
-13 -21 -49 0
18 21 50 0
-18 -21 -50 0
4 22 47 0
-4 -22 -47 0
9 22 48 0
-9 -22 -48 0
14 22 49 0
-14 -22 -49 0
19 22 50 0
-19 -22 -50 0
5 23 47 0
-5 -23 -47 0
10 23 48 0
-10 -23 -48 0
15 23 49 0
-15 -23 -49 0
20 23 50 0
-20 -23 -50 0
1 24 46 0
-1 -24 -46 0
6 24 47 0
-6 -24 -47 0
11 24 48 0
-11 -24 -48 0
16 24 49 0
-16 -24 -49 0
21 24 50 0
-21 -24 -50 0
2 25 46 0
-2 -25 -46 0
7 25 47 0
-7 -25 -47 0
12 25 48 0
-12 -25 -48 0
17 25 49 0
-17 -25 -49 0
22 25 50 0
-22 -25 -50 0
3 26 46 0
-3 -26 -46 0
8 26 47 0
-8 -26 -47 0
13 26 48 0
-13 -26 -48 0
18 26 49 0
-18 -26 -49 0
23 26 50 0
-23 -26 -50 0
4 27 46 0
-4 -27 -46 0
9 27 47 0
-9 -27 -47 0
14 27 48 0
-14 -27 -48 0
19 27 49 0
-19 -27 -49 0
24 27 50 0
-24 -27 -50 0
5 28 46 0
-5 -28 -46 0
10 28 47 0
-10 -28 -47 0
15 28 48 0
-15 -28 -48 0
20 28 49 0
-20 -28 -49 0
25 28 50 0
-25 -28 -50 0
1 29 45 0
-1 -29 -45 0
6 29 46 0
-6 -29 -46 0
11 29 47 0
-11 -29 -47 0
16 29 48 0
-16 -29 -48 0
21 29 49 0
-21 -29 -49 0
26 29 50 0
-26 -29 -50 0
2 30 45 0
-2 -30 -45 0
7 30 46 0
-7 -30 -46 0
12 30 47 0
-12 -30 -47 0
17 30 48 0
-17 -30 -48 0
22 30 49 0
-22 -30 -49 0
27 30 50 0
-27 -30 -50 0
3 31 45 0
-3 -31 -45 0
8 31 46 0
-8 -31 -46 0
13 31 47 0
-13 -31 -47 0
18 31 48 0
-18 -31 -48 0
23 31 49 0
-23 -31 -49 0
28 31 50 0
-28 -31 -50 0
4 32 45 0
-4 -32 -45 0
9 32 46 0
-9 -32 -46 0
14 32 47 0
-14 -32 -47 0
19 32 48 0
-19 -32 -48 0
24 32 49 0
-24 -32 -49 0
29 32 50 0
-29 -32 -50 0
5 33 45 0
-5 -33 -45 0
10 33 46 0
-10 -33 -46 0
15 33 47 0
-15 -33 -47 0
20 33 48 0
-20 -33 -48 0
25 33 49 0
-25 -33 -49 0
30 33 50 0
-30 -33 -50 0
1 34 44 0
-1 -34 -44 0
6 34 45 0
-6 -34 -45 0
11 34 46 0
-11 -34 -46 0
16 34 47 0
-16 -34 -47 0
21 34 48 0
-21 -34 -48 0
26 34 49 0
-26 -34 -49 0
31 34 50 0
-31 -34 -50 0
2 35 44 0
-2 -35 -44 0
7 35 45 0
-7 -35 -45 0
12 35 46 0
-12 -35 -46 0
17 35 47 0
-17 -35 -47 0
22 35 48 0
-22 -35 -48 0
27 35 49 0
-27 -35 -49 0
32 35 50 0
-32 -35 -50 0
3 36 44 0
-3 -36 -44 0
8 36 45 0
-8 -36 -45 0
13 36 46 0
-13 -36 -46 0
18 36 47 0
-18 -36 -47 0
23 36 48 0
-23 -36 -48 0
28 36 49 0
-28 -36 -49 0
33 36 50 0
-33 -36 -50 0
4 37 44 0
-4 -37 -44 0
9 37 45 0
-9 -37 -45 0
14 37 46 0
-14 -37 -46 0
19 37 47 0
-19 -37 -47 0
24 37 48 0
-24 -37 -48 0
29 37 49 0
-29 -37 -49 0
34 37 50 0
-34 -37 -50 0
5 38 44 0
-5 -38 -44 0
10 38 45 0
-10 -38 -45 0
15 38 46 0
-15 -38 -46 0
20 38 47 0
-20 -38 -47 0
25 38 48 0
-25 -38 -48 0
30 38 49 0
-30 -38 -49 0
35 38 50 0
-35 -38 -50 0
1 39 43 0
-1 -39 -43 0
6 39 44 0
-6 -39 -44 0
11 39 45 0
-11 -39 -45 0
16 39 46 0
-16 -39 -46 0
21 39 47 0
-21 -39 -47 0
26 39 48 0
-26 -39 -48 0
31 39 49 0
-31 -39 -49 0
36 39 50 0
-36 -39 -50 0
2 40 43 0
-2 -40 -43 0
7 40 44 0
-7 -40 -44 0
12 40 45 0
-12 -40 -45 0
17 40 46 0
-17 -40 -46 0
22 40 47 0
-22 -40 -47 0
27 40 48 0
-27 -40 -48 0
32 40 49 0
-32 -40 -49 0
37 40 50 0
-37 -40 -50 0
3 41 43 0
-3 -41 -43 0
8 41 44 0
-8 -41 -44 0
13 41 45 0
-13 -41 -45 0
18 41 46 0
-18 -41 -46 0
23 41 47 0
-23 -41 -47 0
28 41 48 0
-28 -41 -48 0
33 41 49 0
-33 -41 -49 0
38 41 50 0
-38 -41 -50 0
4 42 43 0
-4 -42 -43 0
9 42 44 0
-9 -42 -44 0
14 42 45 0
-14 -42 -45 0
19 42 46 0
-19 -42 -46 0
24 42 47 0
-24 -42 -47 0
29 42 48 0
-29 -42 -48 0
34 42 49 0
-34 -42 -49 0
39 42 50 0
-39 -42 -50 0
5 43 0
-5 -43 0
10 43 44 0
-10 -43 -44 0
15 43 45 0
-15 -43 -45 0
20 43 46 0
-20 -43 -46 0
25 43 47 0
-25 -43 -47 0
30 43 48 0
-30 -43 -48 0
35 43 49 0
-35 -43 -49 0
40 43 50 0
-40 -43 -50 0
1 42 44 0
-1 -42 -44 0
6 43 44 0
-6 -43 -44 0
11 44 0
-11 -44 0
16 44 45 0
-16 -44 -45 0
21 44 46 0
-21 -44 -46 0
26 44 47 0
-26 -44 -47 0
31 44 48 0
-31 -44 -48 0
36 44 49 0
-36 -44 -49 0
41 44 50 0
-41 -44 -50 0
2 42 45 0
-2 -42 -45 0
7 43 45 0
-7 -43 -45 0
12 44 45 0
-12 -44 -45 0
17 45 0
-17 -45 0
22 45 46 0
-22 -45 -46 0
27 45 47 0
-27 -45 -47 0
32 45 48 0
-32 -45 -48 0
37 45 49 0
-37 -45 -49 0
42 45 50 0
-42 -45 -50 0
3 42 46 0
-3 -42 -46 0
8 43 46 0
-8 -43 -46 0
13 44 46 0
-13 -44 -46 0
18 45 46 0
-18 -45 -46 0
23 46 0
-23 -46 0
28 46 47 0
-28 -46 -47 0
33 46 48 0
-33 -46 -48 0
38 46 49 0
-38 -46 -49 0
43 46 50 0
-43 -46 -50 0
4 42 47 0
-4 -42 -47 0
9 43 47 0
-9 -43 -47 0
14 44 47 0
-14 -44 -47 0
19 45 47 0
-19 -45 -47 0
24 46 47 0
-24 -46 -47 0
29 47 0
-29 -47 0
34 47 48 0
-34 -47 -48 0
39 47 49 0
-39 -47 -49 0
44 47 50 0
-44 -47 -50 0
5 42 48 0
-5 -42 -48 0
10 43 48 0
-10 -43 -48 0
15 44 48 0
-15 -44 -48 0
20 45 48 0
-20 -45 -48 0
25 46 48 0
-25 -46 -48 0
30 47 48 0
-30 -47 -48 0
35 48 0
-35 -48 0
40 48 49 0
-40 -48 -49 0
45 48 50 0
-45 -48 -50 0
1 41 49 0
-1 -41 -49 0
6 42 49 0
-6 -42 -49 0
11 43 49 0
-11 -43 -49 0
16 44 49 0
-16 -44 -49 0
21 45 49 0
-21 -45 -49 0
26 46 49 0
-26 -46 -49 0
31 47 49 0
-31 -47 -49 0
36 48 49 0
-36 -48 -49 0
41 49 0
-41 -49 0
46 49 50 0
-46 -49 -50 0
2 41 50 0
-2 -41 -50 0
7 42 50 0
-7 -42 -50 0
12 43 50 0
-12 -43 -50 0
17 44 50 0
-17 -44 -50 0
22 45 50 0
-22 -45 -50 0
27 46 50 0
-27 -46 -50 0
32 47 50 0
-32 -47 -50 0
37 48 50 0
-37 -48 -50 0
42 49 50 0
-42 -49 -50 0
47 50 0
-47 -50 0
