certificates/rado_a5_c253_N50.drat
-50 0
47 0
-29 0
26 0
32 0
-8 0
-44 0
-14 0
5 0
11 0
41 0
17 0
-23 0
-43 0
-49 0
-35 0
-45 0
15 0
20 0
31 0
46 0
10 0
0
